************************************************************************
file with basedata            : mb14_.bas
initial value random generator: 333429623
************************************************************************
projects                      :  1
jobs (incl. supersource/sink ):  12
horizon                       :  74
RESOURCES
  - renewable                 :  2   R
  - nonrenewable              :  2   N
  - doubly constrained        :  0   D
************************************************************************
PROJECT INFORMATION:
pronr.  #jobs rel.date duedate tardcost  MPM-Time
    1     10      0        9        7        9
************************************************************************
PRECEDENCE RELATIONS:
jobnr.    #modes  #successors   successors
   0        1          3           1   2   3
   1        3          1           9
   2        3          3           4   5   7
   3        3          1           4
   4        3          3           8   9  10
   5        3          2           6  10
   6        3          1           8
   7        3          1           8
   8        3          1          11
   9        3          1          11
  10        3          1          11
  11        1          0        
************************************************************************
REQUESTS/DURATIONS:
jobnr. mode duration  R 1  R 2  R 3  R 4  E(W 1)  E(W 2)  E(W 3)
------------------------------------------------------------------------
  0      1     0       0    0    0    0     0       0       0
  1      1     6       6   10    7    8    96      42      48
  2      1     1       8    4    8    2    12       8       2
  3      1     2       9   10    6    9    38      12      18
  4      1     1       6    6    8    8    12       8       8
  5      1     3       8    7    2   10    45       6      30
  6      1     1       8    9    9    5    17       9       5
  7      1     1       6    6    9    7    12       9       7
  8      1     2       7    5    4    9    24       8      18
  9      1     3       6    6    8   10    36      24      30
 10      1     1       9    4    5    5    13       5       5
 11      1     0       0    0    0    0     0       0       0
************************************************************************
RESOURCEAVAILABILITIES:
  R 1  R 2  R 3
   22   67   74
************************************************************************
RESOURCE LIMITS:
jobnr.  l(R 1)  u(R 1)  l(R 2)  u(R 2)  l(R 3)  u(R 3)
------------------------------------------------------------------------
  0        0       0       0       0       0       0
  1        8      16       4       7       4       8
  2        6      12       4       8       1       2
  3       10      19       3       6       5       9
  4        6      12       4       8       4       8
  5        8      15       1       2       5      10
  6        9      17       5       9       3       5
  7        6      12       5       9       4       7
  8        7      12       2       4       5       9
  9        6      12       4       8       5      10
 10        7      13       3       5       3       5
 11        0       0       0       0       0       0
************************************************************************
SCENARIOS:
------------------------------------------------------------------------
RESOURCE k = 1
s = 1: (0, 136, 10, 41, 12, 50, 16, 8, 18, 31, 12, 0)
s = 2: (0, 90, 10, 34, 14, 48, 22, 14, 37, 37, 9, 0)
s = 3: (0, 82, 15, 45, 15, 42, 24, 15, 25, 34, 14, 0)
s = 4: (0, 96, 18, 42, 13, 51, 16, 9, 14, 23, 9, 0)
s = 5: (0, 72, 9, 38, 9, 61, 17, 13, 30, 34, 9, 0)
s = 6: (0, 68, 17, 44, 15, 53, 16, 13, 24, 29, 12, 0)
s = 7: (0, 113, 21, 51, 10, 43, 12, 15, 21, 32, 21, 0)
s = 8: (0, 96, 10, 29, 10, 60, 19, 23, 20, 58, 10, 0)
s = 9: (0, 87, 9, 46, 14, 41, 14, 12, 15, 30, 17, 0)
s = 10: (0, 120, 17, 36, 17, 56, 22, 9, 30, 23, 11, 0)
s = 11: (0, 105, 14, 33, 18, 76, 14, 9, 18, 35, 14, 0)
s = 12: (0, 109, 12, 44, 12, 37, 16, 11, 22, 23, 15, 0)
s = 13: (0, 68, 10, 43, 12, 28, 15, 19, 18, 28, 15, 0)
s = 14: (0, 60, 9, 45, 10, 30, 19, 14, 26, 51, 13, 0)
s = 15: (0, 61, 14, 37, 9, 36, 10, 9, 19, 23, 10, 0)
s = 16: (0, 136, 9, 23, 8, 33, 20, 16, 35, 24, 16, 0)
s = 17: (0, 98, 9, 35, 15, 29, 18, 9, 19, 35, 15, 0)
s = 18: (0, 99, 10, 23, 10, 31, 21, 10, 23, 45, 12, 0)
s = 19: (0, 74, 18, 21, 17, 49, 12, 8, 29, 39, 12, 0)
s = 20: (0, 55, 9, 57, 16, 49, 22, 12, 23, 27, 16, 0)
s = 21: (0, 77, 17, 59, 17, 32, 15, 11, 27, 28, 13, 0)
s = 22: (0, 100, 11, 23, 19, 63, 10, 16, 24, 30, 9, 0)
s = 23: (0, 62, 14, 33, 15, 34, 22, 11, 27, 60, 16, 0)
s = 24: (0, 115, 13, 31, 10, 35, 23, 23, 20, 23, 19, 0)
s = 25: (0, 57, 11, 37, 7, 47, 10, 21, 32, 20, 14, 0)
s = 26: (0, 71, 14, 48, 15, 91, 13, 14, 23, 37, 14, 0)
s = 27: (0, 112, 11, 44, 13, 35, 14, 10, 42, 34, 13, 0)
s = 28: (0, 137, 12, 29, 13, 38, 14, 11, 22, 27, 8, 0)
s = 29: (0, 75, 17, 33, 10, 71, 10, 15, 43, 46, 13, 0)
s = 30: (0, 83, 14, 23, 10, 69, 26, 13, 21, 29, 15, 0)
s = 31: (0, 85, 17, 38, 12, 40, 15, 10, 19, 23, 16, 0)
s = 32: (0, 84, 10, 38, 8, 44, 22, 17, 30, 30, 14, 0)
s = 33: (0, 54, 13, 21, 10, 36, 17, 14, 30, 51, 11, 0)
s = 34: (0, 87, 19, 39, 19, 45, 19, 17, 20, 41, 12, 0)
s = 35: (0, 117, 12, 54, 8, 35, 26, 11, 23, 51, 13, 0)
s = 36: (0, 105, 10, 44, 16, 43, 24, 19, 29, 25, 14, 0)
s = 37: (0, 83, 13, 35, 14, 38, 23, 13, 25, 34, 11, 0)
s = 38: (0, 98, 15, 26, 13, 58, 19, 10, 14, 34, 14, 0)
s = 39: (0, 113, 9, 36, 12, 25, 11, 9, 19, 31, 12, 0)
s = 40: (0, 66, 8, 52, 9, 45, 15, 15, 28, 33, 26, 0)
s = 41: (0, 114, 9, 34, 9, 47, 20, 9, 19, 54, 15, 0)
s = 42: (0, 127, 11, 42, 15, 59, 13, 7, 37, 40, 18, 0)
s = 43: (0, 93, 16, 29, 18, 26, 20, 11, 22, 25, 19, 0)
s = 44: (0, 127, 10, 47, 17, 56, 9, 17, 34, 35, 12, 0)
s = 45: (0, 89, 13, 26, 8, 54, 18, 12, 16, 27, 9, 0)
s = 46: (0, 114, 18, 58, 22, 42, 14, 14, 23, 44, 16, 0)
s = 47: (0, 119, 13, 56, 17, 51, 16, 10, 17, 27, 9, 0)
s = 48: (0, 99, 13, 53, 11, 26, 19, 11, 29, 59, 19, 0)
s = 49: (0, 99, 14, 26, 9, 50, 12, 9, 27, 30, 11, 0)
s = 50: (0, 91, 9, 25, 11, 32, 21, 7, 34, 44, 12, 0)
s = 51: (0, 143, 9, 38, 9, 44, 13, 9, 36, 47, 16, 0)
s = 52: (0, 89, 16, 40, 8, 42, 14, 11, 48, 39, 12, 0)
s = 53: (0, 127, 11, 34, 10, 46, 16, 16, 22, 24, 14, 0)
s = 54: (0, 66, 12, 34, 11, 52, 13, 12, 19, 54, 14, 0)
s = 55: (0, 107, 19, 29, 11, 36, 12, 10, 15, 33, 18, 0)
s = 56: (0, 103, 9, 47, 10, 54, 25, 18, 27, 22, 11, 0)
s = 57: (0, 106, 12, 25, 9, 47, 16, 15, 41, 34, 10, 0)
s = 58: (0, 106, 14, 24, 8, 37, 24, 13, 22, 55, 12, 0)
s = 59: (0, 114, 13, 33, 15, 35, 11, 14, 15, 46, 13, 0)
s = 60: (0, 102, 7, 49, 13, 32, 21, 14, 29, 28, 16, 0)
s = 61: (0, 110, 22, 34, 8, 35, 19, 16, 19, 38, 12, 0)
s = 62: (0, 65, 17, 62, 11, 80, 15, 11, 36, 21, 8, 0)
s = 63: (0, 85, 12, 49, 12, 48, 18, 17, 22, 34, 13, 0)
s = 64: (0, 110, 15, 33, 12, 52, 17, 21, 23, 30, 15, 0)
s = 65: (0, 133, 8, 31, 8, 38, 19, 15, 32, 46, 9, 0)
s = 66: (0, 108, 14, 38, 15, 30, 15, 19, 23, 19, 9, 0)
s = 67: (0, 120, 16, 32, 8, 37, 11, 12, 21, 44, 11, 0)
s = 68: (0, 68, 15, 44, 20, 33, 15, 15, 24, 45, 9, 0)
s = 69: (0, 77, 12, 24, 10, 51, 12, 16, 27, 60, 17, 0)
s = 70: (0, 124, 17, 24, 12, 41, 24, 16, 26, 37, 10, 0)
s = 71: (0, 110, 20, 43, 13, 49, 11, 9, 25, 38, 10, 0)
s = 72: (0, 67, 12, 32, 9, 51, 13, 9, 19, 23, 15, 0)
s = 73: (0, 97, 10, 40, 14, 24, 18, 13, 23, 35, 10, 0)
s = 74: (0, 83, 12, 24, 8, 47, 20, 12, 32, 31, 22, 0)
s = 75: (0, 96, 19, 27, 12, 50, 13, 9, 24, 26, 8, 0)
s = 76: (0, 71, 8, 59, 16, 35, 19, 11, 19, 21, 16, 0)
s = 77: (0, 86, 17, 31, 9, 62, 21, 11, 16, 25, 12, 0)
s = 78: (0, 56, 10, 32, 13, 32, 16, 16, 37, 45, 10, 0)
s = 79: (0, 69, 23, 49, 10, 58, 22, 13, 27, 27, 18, 0)
s = 80: (0, 80, 13, 46, 14, 55, 24, 8, 34, 36, 15, 0)
s = 81: (0, 80, 11, 35, 15, 45, 18, 10, 23, 35, 12, 0)
s = 82: (0, 115, 11, 26, 14, 37, 21, 10, 39, 22, 16, 0)
s = 83: (0, 94, 8, 41, 10, 55, 15, 10, 18, 31, 16, 0)
s = 84: (0, 78, 10, 33, 8, 53, 27, 9, 24, 46, 15, 0)
s = 85: (0, 82, 15, 51, 22, 43, 12, 13, 29, 49, 13, 0)
s = 86: (0, 132, 16, 51, 15, 68, 15, 19, 23, 42, 12, 0)
s = 87: (0, 115, 10, 42, 15, 34, 11, 21, 22, 31, 21, 0)
s = 88: (0, 89, 15, 38, 11, 28, 13, 11, 29, 23, 9, 0)
s = 89: (0, 76, 12, 25, 15, 37, 24, 11, 14, 32, 10, 0)
s = 90: (0, 63, 11, 29, 10, 62, 24, 15, 33, 47, 14, 0)
s = 91: (0, 93, 13, 23, 8, 37, 16, 14, 37, 48, 16, 0)
s = 92: (0, 76, 11, 68, 20, 38, 20, 19, 44, 35, 17, 0)
s = 93: (0, 67, 9, 28, 9, 45, 27, 9, 20, 24, 9, 0)
s = 94: (0, 114, 8, 37, 9, 37, 12, 10, 26, 30, 13, 0)
s = 95: (0, 133, 8, 40, 7, 55, 21, 11, 18, 28, 12, 0)
s = 96: (0, 101, 12, 49, 15, 36, 17, 21, 27, 48, 14, 0)
s = 97: (0, 140, 21, 55, 9, 25, 11, 14, 23, 33, 14, 0)
s = 98: (0, 82, 17, 50, 17, 39, 23, 8, 16, 22, 9, 0)
s = 99: (0, 93, 17, 56, 13, 61, 18, 7, 32, 20, 9, 0)
s = 100: (0, 69, 8, 37, 12, 87, 11, 9, 31, 34, 8, 0)
s = 101: (0, 116, 13, 37, 17, 35, 17, 7, 21, 35, 13, 0)
s = 102: (0, 84, 13, 34, 11, 55, 12, 13, 41, 57, 18, 0)
s = 103: (0, 122, 13, 59, 9, 58, 14, 9, 27, 35, 14, 0)
s = 104: (0, 54, 14, 35, 18, 58, 24, 10, 27, 26, 19, 0)
s = 105: (0, 74, 9, 28, 10, 72, 25, 10, 20, 53, 15, 0)
s = 106: (0, 115, 18, 65, 13, 40, 24, 14, 27, 55, 17, 0)
s = 107: (0, 148, 11, 32, 18, 68, 16, 10, 29, 45, 9, 0)
s = 108: (0, 66, 10, 39, 8, 46, 11, 13, 25, 50, 9, 0)
s = 109: (0, 97, 16, 38, 12, 35, 14, 13, 20, 39, 18, 0)
s = 110: (0, 133, 13, 44, 12, 71, 16, 10, 25, 22, 13, 0)
s = 111: (0, 58, 13, 42, 12, 38, 13, 9, 24, 45, 13, 0)
s = 112: (0, 134, 13, 41, 21, 56, 15, 16, 20, 35, 13, 0)
s = 113: (0, 119, 8, 37, 13, 45, 14, 13, 29, 28, 11, 0)
s = 114: (0, 126, 8, 26, 15, 47, 12, 19, 17, 50, 18, 0)
s = 115: (0, 159, 9, 49, 15, 38, 13, 10, 41, 29, 13, 0)
s = 116: (0, 120, 16, 34, 15, 50, 19, 8, 27, 52, 11, 0)
s = 117: (0, 67, 13, 36, 13, 41, 13, 20, 23, 51, 9, 0)
s = 118: (0, 55, 11, 23, 10, 33, 14, 14, 19, 42, 8, 0)
s = 119: (0, 61, 14, 22, 12, 36, 24, 16, 20, 45, 13, 0)
s = 120: (0, 121, 13, 30, 15, 52, 18, 19, 15, 20, 16, 0)
s = 121: (0, 97, 10, 35, 10, 84, 19, 13, 14, 55, 20, 0)
s = 122: (0, 116, 9, 48, 9, 73, 11, 8, 18, 23, 15, 0)
s = 123: (0, 108, 14, 29, 14, 45, 22, 8, 28, 39, 12, 0)
s = 124: (0, 86, 16, 38, 10, 50, 16, 18, 29, 22, 13, 0)
s = 125: (0, 95, 11, 31, 16, 65, 21, 11, 31, 27, 12, 0)
s = 126: (0, 112, 15, 27, 12, 35, 13, 10, 28, 54, 14, 0)
s = 127: (0, 109, 17, 25, 12, 39, 15, 9, 18, 31, 19, 0)
s = 128: (0, 87, 8, 25, 18, 31, 18, 13, 19, 46, 16, 0)
s = 129: (0, 88, 12, 48, 16, 25, 12, 14, 15, 27, 22, 0)
s = 130: (0, 78, 10, 30, 15, 57, 14, 10, 23, 49, 17, 0)
s = 131: (0, 55, 16, 33, 14, 27, 17, 9, 31, 24, 13, 0)
s = 132: (0, 93, 12, 42, 10, 38, 23, 13, 29, 39, 11, 0)
s = 133: (0, 106, 13, 24, 14, 53, 17, 17, 28, 33, 18, 0)
s = 134: (0, 97, 9, 36, 14, 54, 19, 14, 26, 25, 12, 0)
s = 135: (0, 119, 7, 32, 12, 44, 22, 19, 19, 46, 11, 0)
s = 136: (0, 107, 13, 24, 12, 28, 26, 14, 20, 40, 9, 0)
s = 137: (0, 108, 9, 50, 15, 36, 23, 19, 36, 39, 14, 0)
s = 138: (0, 126, 14, 67, 10, 37, 22, 13, 21, 26, 12, 0)
s = 139: (0, 89, 11, 45, 15, 57, 11, 16, 18, 39, 14, 0)
s = 140: (0, 101, 14, 41, 10, 50, 23, 12, 28, 35, 7, 0)
s = 141: (0, 95, 11, 38, 13, 47, 14, 11, 15, 36, 18, 0)
s = 142: (0, 153, 8, 33, 10, 76, 12, 9, 29, 52, 10, 0)
s = 143: (0, 144, 11, 53, 9, 51, 13, 7, 20, 22, 11, 0)
s = 144: (0, 63, 7, 49, 14, 61, 15, 10, 13, 27, 13, 0)
s = 145: (0, 133, 18, 32, 9, 47, 25, 15, 28, 22, 19, 0)
s = 146: (0, 58, 11, 33, 13, 29, 25, 19, 20, 32, 13, 0)
s = 147: (0, 126, 19, 38, 17, 56, 16, 9, 27, 32, 20, 0)
s = 148: (0, 59, 15, 50, 10, 38, 19, 15, 22, 41, 14, 0)
s = 149: (0, 82, 17, 49, 9, 39, 18, 15, 36, 29, 24, 0)
s = 150: (0, 113, 8, 40, 13, 50, 22, 9, 27, 35, 11, 0)
s = 151: (0, 58, 11, 33, 14, 57, 20, 10, 15, 40, 14, 0)
s = 152: (0, 103, 13, 40, 13, 63, 17, 17, 28, 60, 12, 0)
s = 153: (0, 92, 8, 33, 14, 81, 15, 15, 19, 34, 17, 0)
s = 154: (0, 102, 14, 38, 13, 56, 16, 15, 27, 25, 15, 0)
s = 155: (0, 122, 12, 29, 10, 29, 20, 12, 16, 46, 16, 0)
s = 156: (0, 72, 12, 57, 14, 32, 21, 17, 25, 48, 13, 0)
s = 157: (0, 107, 11, 30, 15, 42, 18, 13, 33, 36, 10, 0)
s = 158: (0, 82, 12, 40, 10, 32, 15, 19, 33, 33, 10, 0)
s = 159: (0, 71, 12, 34, 13, 32, 21, 11, 21, 42, 12, 0)
s = 160: (0, 155, 11, 59, 11, 40, 12, 13, 25, 28, 11, 0)
s = 161: (0, 60, 12, 36, 14, 35, 14, 15, 29, 28, 17, 0)
s = 162: (0, 117, 20, 41, 13, 34, 18, 10, 17, 45, 8, 0)
s = 163: (0, 85, 13, 31, 15, 50, 12, 9, 23, 22, 10, 0)
s = 164: (0, 114, 7, 50, 9, 40, 17, 12, 22, 32, 10, 0)
s = 165: (0, 76, 9, 37, 17, 48, 22, 15, 19, 22, 10, 0)
s = 166: (0, 87, 22, 54, 13, 36, 12, 8, 20, 30, 11, 0)
s = 167: (0, 102, 13, 45, 14, 35, 15, 13, 36, 26, 18, 0)
s = 168: (0, 157, 11, 48, 16, 33, 20, 7, 25, 29, 13, 0)
s = 169: (0, 89, 10, 46, 10, 61, 23, 15, 25, 48, 15, 0)
s = 170: (0, 137, 15, 26, 13, 59, 22, 17, 19, 45, 13, 0)
s = 171: (0, 121, 9, 38, 8, 34, 19, 9, 18, 27, 16, 0)
s = 172: (0, 130, 10, 34, 17, 57, 18, 14, 20, 45, 11, 0)
s = 173: (0, 103, 17, 37, 12, 51, 16, 10, 15, 54, 15, 0)
s = 174: (0, 83, 19, 52, 9, 44, 17, 14, 25, 46, 12, 0)
s = 175: (0, 121, 7, 46, 13, 38, 19, 14, 24, 29, 13, 0)
s = 176: (0, 113, 13, 47, 15, 49, 25, 17, 29, 31, 15, 0)
s = 177: (0, 55, 13, 32, 10, 49, 20, 14, 27, 26, 10, 0)
s = 178: (0, 106, 8, 69, 11, 28, 13, 10, 21, 37, 10, 0)
s = 179: (0, 122, 15, 48, 13, 37, 13, 13, 25, 25, 17, 0)
s = 180: (0, 72, 10, 33, 8, 60, 19, 9, 19, 38, 12, 0)
s = 181: (0, 76, 12, 27, 14, 38, 16, 12, 29, 22, 7, 0)
s = 182: (0, 78, 20, 51, 13, 52, 18, 9, 29, 25, 14, 0)
s = 183: (0, 73, 8, 32, 11, 43, 24, 10, 20, 43, 16, 0)
s = 184: (0, 104, 12, 43, 16, 43, 12, 8, 17, 28, 8, 0)
s = 185: (0, 69, 13, 56, 12, 29, 24, 9, 18, 23, 11, 0)
s = 186: (0, 63, 14, 45, 11, 52, 11, 12, 23, 26, 11, 0)
s = 187: (0, 118, 12, 36, 12, 45, 17, 7, 31, 48, 13, 0)
s = 188: (0, 103, 12, 34, 14, 48, 22, 10, 35, 61, 9, 0)
s = 189: (0, 82, 14, 58, 15, 62, 29, 19, 15, 36, 13, 0)
s = 190: (0, 60, 14, 48, 13, 62, 24, 10, 18, 31, 8, 0)
s = 191: (0, 82, 8, 51, 15, 61, 13, 15, 25, 40, 13, 0)
s = 192: (0, 89, 16, 37, 9, 32, 23, 12, 20, 40, 15, 0)
s = 193: (0, 123, 13, 47, 14, 66, 16, 12, 31, 31, 18, 0)
s = 194: (0, 68, 15, 46, 10, 50, 15, 15, 16, 28, 14, 0)
s = 195: (0, 76, 16, 25, 8, 51, 23, 13, 33, 33, 8, 0)
s = 196: (0, 80, 11, 37, 10, 49, 18, 11, 32, 26, 12, 0)
s = 197: (0, 134, 9, 22, 11, 40, 27, 12, 18, 36, 14, 0)
s = 198: (0, 89, 9, 40, 15, 45, 23, 17, 38, 33, 14, 0)
s = 199: (0, 141, 8, 42, 15, 33, 23, 10, 38, 40, 11, 0)
s = 200: (0, 124, 12, 31, 12, 30, 23, 17, 22, 46, 11, 0)
------------------------------------------------------------------------
RESOURCE k = 2
s = 1: (0, 60, 7, 13, 8, 7, 9, 6, 6, 21, 5, 0)
s = 2: (0, 40, 7, 11, 9, 7, 12, 11, 13, 25, 4, 0)
s = 3: (0, 36, 10, 14, 10, 6, 13, 12, 9, 23, 6, 0)
s = 4: (0, 42, 12, 14, 9, 7, 9, 7, 5, 15, 4, 0)
s = 5: (0, 32, 6, 12, 6, 9, 9, 10, 10, 23, 4, 0)
s = 6: (0, 30, 12, 14, 10, 7, 9, 10, 8, 19, 5, 0)
s = 7: (0, 50, 14, 17, 7, 6, 7, 11, 7, 22, 8, 0)
s = 8: (0, 42, 7, 9, 7, 8, 10, 17, 7, 39, 4, 0)
s = 9: (0, 38, 6, 15, 9, 6, 7, 9, 5, 20, 7, 0)
s = 10: (0, 53, 12, 12, 12, 8, 12, 7, 10, 15, 5, 0)
s = 11: (0, 46, 9, 11, 12, 11, 8, 7, 6, 24, 6, 0)
s = 12: (0, 48, 8, 14, 8, 5, 9, 8, 8, 16, 6, 0)
s = 13: (0, 30, 7, 14, 8, 4, 8, 15, 6, 19, 6, 0)
s = 14: (0, 26, 6, 14, 7, 4, 10, 11, 9, 34, 5, 0)
s = 15: (0, 27, 9, 12, 6, 5, 6, 7, 7, 15, 4, 0)
s = 16: (0, 60, 6, 8, 5, 5, 11, 12, 12, 16, 6, 0)
s = 17: (0, 43, 6, 11, 10, 4, 10, 7, 7, 23, 6, 0)
s = 18: (0, 43, 7, 8, 7, 5, 11, 8, 8, 30, 5, 0)
s = 19: (0, 33, 12, 7, 11, 7, 7, 6, 10, 26, 5, 0)
s = 20: (0, 24, 6, 18, 11, 7, 12, 9, 8, 18, 6, 0)
s = 21: (0, 34, 12, 19, 11, 5, 8, 9, 9, 19, 5, 0)
s = 22: (0, 44, 8, 8, 13, 9, 5, 12, 8, 20, 4, 0)
s = 23: (0, 27, 9, 11, 10, 5, 12, 9, 9, 40, 6, 0)
s = 24: (0, 51, 9, 10, 7, 5, 12, 17, 7, 16, 8, 0)
s = 25: (0, 25, 8, 12, 5, 7, 6, 16, 11, 13, 6, 0)
s = 26: (0, 31, 10, 16, 10, 13, 7, 10, 8, 25, 6, 0)
s = 27: (0, 49, 7, 14, 9, 5, 8, 8, 14, 23, 5, 0)
s = 28: (0, 60, 8, 10, 9, 5, 8, 9, 8, 18, 3, 0)
s = 29: (0, 33, 11, 11, 7, 10, 6, 12, 15, 31, 5, 0)
s = 30: (0, 37, 9, 8, 7, 10, 14, 10, 7, 19, 6, 0)
s = 31: (0, 37, 11, 12, 8, 6, 8, 8, 7, 16, 7, 0)
s = 32: (0, 37, 7, 12, 5, 6, 12, 13, 10, 20, 6, 0)
s = 33: (0, 24, 9, 7, 7, 5, 9, 11, 10, 34, 4, 0)
s = 34: (0, 38, 13, 13, 13, 6, 10, 13, 7, 27, 5, 0)
s = 35: (0, 51, 8, 17, 6, 5, 14, 8, 8, 34, 5, 0)
s = 36: (0, 46, 7, 14, 11, 6, 13, 14, 10, 17, 6, 0)
s = 37: (0, 37, 9, 12, 9, 5, 12, 10, 9, 23, 5, 0)
s = 38: (0, 43, 10, 9, 9, 8, 10, 7, 5, 23, 6, 0)
s = 39: (0, 50, 6, 12, 8, 4, 6, 7, 7, 21, 5, 0)
s = 40: (0, 29, 6, 17, 6, 6, 8, 11, 10, 22, 10, 0)
s = 41: (0, 50, 6, 11, 6, 7, 11, 7, 7, 36, 6, 0)
s = 42: (0, 56, 7, 14, 10, 8, 7, 6, 13, 27, 7, 0)
s = 43: (0, 41, 11, 9, 12, 4, 11, 9, 8, 17, 8, 0)
s = 44: (0, 56, 7, 15, 12, 8, 5, 13, 12, 24, 5, 0)
s = 45: (0, 39, 9, 8, 5, 8, 10, 9, 6, 18, 4, 0)
s = 46: (0, 50, 12, 19, 15, 6, 8, 11, 8, 29, 7, 0)
s = 47: (0, 52, 9, 18, 11, 7, 9, 8, 6, 18, 4, 0)
s = 48: (0, 44, 9, 17, 8, 4, 10, 8, 10, 39, 8, 0)
s = 49: (0, 44, 9, 8, 6, 7, 7, 7, 9, 20, 5, 0)
s = 50: (0, 40, 6, 8, 8, 5, 11, 5, 12, 30, 5, 0)
s = 51: (0, 63, 6, 12, 6, 6, 7, 7, 12, 32, 7, 0)
s = 52: (0, 39, 11, 13, 5, 6, 7, 9, 16, 26, 5, 0)
s = 53: (0, 56, 8, 11, 7, 7, 9, 12, 8, 16, 6, 0)
s = 54: (0, 29, 8, 11, 7, 7, 7, 9, 7, 36, 6, 0)
s = 55: (0, 47, 13, 10, 8, 5, 7, 7, 5, 22, 7, 0)
s = 56: (0, 45, 6, 15, 7, 8, 13, 14, 9, 15, 4, 0)
s = 57: (0, 47, 8, 8, 6, 7, 9, 11, 14, 23, 4, 0)
s = 58: (0, 46, 9, 8, 5, 5, 13, 10, 8, 37, 5, 0)
s = 59: (0, 50, 9, 11, 10, 5, 6, 11, 5, 31, 5, 0)
s = 60: (0, 45, 5, 16, 9, 5, 11, 10, 10, 19, 6, 0)
s = 61: (0, 48, 15, 11, 5, 5, 10, 12, 7, 25, 5, 0)
s = 62: (0, 29, 11, 20, 7, 11, 8, 9, 12, 14, 4, 0)
s = 63: (0, 38, 8, 16, 8, 7, 10, 13, 8, 23, 5, 0)
s = 64: (0, 48, 10, 11, 8, 7, 9, 16, 8, 20, 6, 0)
s = 65: (0, 58, 6, 10, 5, 6, 10, 12, 11, 31, 4, 0)
s = 66: (0, 47, 9, 12, 10, 4, 8, 15, 8, 13, 4, 0)
s = 67: (0, 53, 11, 11, 6, 5, 6, 9, 7, 30, 4, 0)
s = 68: (0, 30, 10, 14, 14, 5, 8, 11, 8, 30, 4, 0)
s = 69: (0, 34, 8, 8, 7, 7, 6, 12, 9, 40, 7, 0)
s = 70: (0, 54, 11, 8, 8, 6, 13, 12, 9, 25, 4, 0)
s = 71: (0, 48, 13, 14, 9, 7, 6, 7, 9, 26, 4, 0)
s = 72: (0, 30, 8, 10, 6, 7, 7, 7, 7, 15, 6, 0)
s = 73: (0, 43, 7, 13, 9, 4, 10, 10, 8, 23, 4, 0)
s = 74: (0, 37, 8, 8, 5, 7, 11, 9, 11, 21, 9, 0)
s = 75: (0, 42, 13, 9, 8, 7, 7, 7, 8, 18, 4, 0)
s = 76: (0, 31, 6, 19, 11, 5, 10, 9, 7, 14, 6, 0)
s = 77: (0, 38, 12, 10, 6, 9, 11, 8, 6, 17, 5, 0)
s = 78: (0, 25, 7, 10, 9, 5, 9, 12, 13, 30, 4, 0)
s = 79: (0, 30, 15, 16, 7, 8, 12, 10, 9, 18, 7, 0)
s = 80: (0, 35, 9, 15, 10, 8, 13, 6, 12, 24, 6, 0)
s = 81: (0, 35, 8, 12, 10, 6, 10, 8, 8, 24, 5, 0)
s = 82: (0, 51, 7, 9, 10, 5, 11, 8, 13, 15, 6, 0)
s = 83: (0, 41, 6, 13, 7, 8, 8, 8, 6, 21, 6, 0)
s = 84: (0, 34, 7, 11, 6, 8, 15, 7, 8, 31, 6, 0)
s = 85: (0, 36, 10, 16, 15, 6, 7, 10, 10, 33, 5, 0)
s = 86: (0, 58, 11, 17, 10, 10, 8, 14, 8, 28, 5, 0)
s = 87: (0, 51, 7, 13, 10, 5, 6, 16, 8, 21, 8, 0)
s = 88: (0, 39, 10, 12, 8, 4, 7, 9, 10, 15, 4, 0)
s = 89: (0, 33, 8, 8, 10, 5, 13, 8, 5, 22, 4, 0)
s = 90: (0, 28, 8, 10, 7, 9, 13, 11, 11, 32, 6, 0)
s = 91: (0, 41, 9, 8, 5, 5, 8, 11, 13, 32, 6, 0)
s = 92: (0, 34, 8, 22, 14, 5, 11, 14, 15, 23, 7, 0)
s = 93: (0, 29, 6, 9, 6, 6, 15, 7, 7, 16, 4, 0)
s = 94: (0, 50, 6, 12, 6, 5, 7, 8, 9, 20, 5, 0)
s = 95: (0, 59, 6, 13, 5, 8, 11, 9, 6, 19, 5, 0)
s = 96: (0, 44, 8, 16, 10, 5, 9, 16, 9, 32, 6, 0)
s = 97: (0, 62, 14, 18, 6, 4, 6, 11, 8, 22, 6, 0)
s = 98: (0, 36, 11, 16, 11, 6, 12, 6, 6, 15, 4, 0)
s = 99: (0, 41, 11, 18, 9, 9, 10, 5, 11, 14, 4, 0)
s = 100: (0, 30, 5, 12, 8, 12, 6, 7, 11, 23, 3, 0)
s = 101: (0, 51, 9, 12, 12, 5, 9, 5, 7, 23, 5, 0)
s = 102: (0, 37, 9, 11, 8, 8, 7, 10, 14, 38, 7, 0)
s = 103: (0, 54, 9, 19, 6, 8, 8, 7, 9, 24, 6, 0)
s = 104: (0, 24, 9, 11, 12, 8, 13, 7, 9, 17, 8, 0)
s = 105: (0, 33, 6, 9, 7, 10, 13, 7, 7, 36, 6, 0)
s = 106: (0, 51, 12, 21, 9, 6, 13, 10, 9, 37, 7, 0)
s = 107: (0, 65, 7, 10, 12, 10, 9, 8, 10, 30, 4, 0)
s = 108: (0, 29, 7, 13, 5, 7, 6, 10, 9, 33, 4, 0)
s = 109: (0, 43, 11, 12, 8, 5, 8, 10, 7, 26, 7, 0)
s = 110: (0, 58, 9, 14, 8, 10, 8, 7, 9, 15, 5, 0)
s = 111: (0, 26, 9, 14, 8, 6, 7, 7, 8, 30, 5, 0)
s = 112: (0, 59, 9, 13, 14, 8, 8, 12, 7, 23, 5, 0)
s = 113: (0, 52, 6, 12, 9, 6, 8, 10, 10, 19, 4, 0)
s = 114: (0, 55, 5, 9, 10, 7, 7, 14, 6, 33, 7, 0)
s = 115: (0, 70, 6, 16, 10, 5, 7, 8, 14, 19, 5, 0)
s = 116: (0, 53, 11, 11, 10, 7, 10, 6, 9, 35, 5, 0)
s = 117: (0, 29, 9, 12, 9, 6, 7, 15, 8, 34, 4, 0)
s = 118: (0, 25, 8, 8, 7, 5, 8, 11, 7, 28, 3, 0)
s = 119: (0, 27, 9, 7, 8, 5, 13, 12, 7, 30, 5, 0)
s = 120: (0, 53, 9, 10, 10, 7, 10, 15, 5, 14, 6, 0)
s = 121: (0, 43, 7, 11, 7, 12, 10, 10, 5, 37, 8, 0)
s = 122: (0, 51, 6, 16, 6, 10, 6, 6, 6, 15, 6, 0)
s = 123: (0, 48, 10, 10, 10, 6, 12, 6, 10, 26, 5, 0)
s = 124: (0, 38, 11, 12, 7, 7, 9, 14, 10, 15, 5, 0)
s = 125: (0, 42, 7, 10, 11, 9, 11, 9, 11, 18, 5, 0)
s = 126: (0, 49, 10, 9, 8, 5, 7, 8, 10, 36, 6, 0)
s = 127: (0, 48, 11, 8, 8, 6, 8, 7, 6, 21, 7, 0)
s = 128: (0, 38, 5, 8, 12, 5, 10, 10, 7, 31, 6, 0)
s = 129: (0, 39, 8, 15, 11, 4, 6, 11, 5, 18, 9, 0)
s = 130: (0, 34, 7, 10, 10, 8, 8, 8, 8, 33, 7, 0)
s = 131: (0, 25, 11, 11, 9, 4, 9, 7, 11, 16, 5, 0)
s = 132: (0, 41, 8, 14, 7, 6, 13, 10, 10, 26, 4, 0)
s = 133: (0, 47, 9, 8, 9, 8, 9, 13, 10, 22, 7, 0)
s = 134: (0, 43, 6, 12, 9, 8, 10, 11, 9, 17, 5, 0)
s = 135: (0, 53, 5, 10, 8, 6, 12, 14, 7, 31, 5, 0)
s = 136: (0, 47, 9, 8, 8, 4, 14, 11, 7, 27, 4, 0)
s = 137: (0, 47, 6, 16, 10, 5, 12, 14, 12, 26, 6, 0)
s = 138: (0, 55, 9, 22, 7, 5, 12, 10, 7, 17, 5, 0)
s = 139: (0, 39, 7, 14, 10, 8, 6, 12, 6, 26, 6, 0)
s = 140: (0, 45, 9, 13, 7, 7, 12, 9, 10, 23, 3, 0)
s = 141: (0, 42, 7, 12, 9, 7, 8, 9, 5, 24, 7, 0)
s = 142: (0, 67, 6, 11, 7, 11, 7, 7, 10, 35, 4, 0)
s = 143: (0, 63, 7, 17, 6, 7, 7, 6, 7, 15, 5, 0)
s = 144: (0, 28, 5, 16, 10, 9, 8, 7, 5, 18, 5, 0)
s = 145: (0, 58, 12, 10, 6, 7, 14, 12, 10, 15, 8, 0)
s = 146: (0, 26, 7, 11, 9, 4, 14, 14, 7, 22, 5, 0)
s = 147: (0, 55, 13, 12, 12, 8, 9, 7, 9, 21, 8, 0)
s = 148: (0, 26, 10, 16, 7, 6, 10, 11, 8, 27, 6, 0)
s = 149: (0, 36, 12, 16, 6, 6, 10, 12, 12, 19, 9, 0)
s = 150: (0, 50, 6, 13, 9, 7, 12, 7, 9, 23, 5, 0)
s = 151: (0, 26, 8, 11, 10, 8, 11, 8, 5, 27, 6, 0)
s = 152: (0, 45, 9, 13, 9, 9, 9, 13, 10, 40, 5, 0)
s = 153: (0, 41, 5, 11, 10, 11, 8, 11, 7, 23, 7, 0)
s = 154: (0, 45, 9, 12, 9, 8, 9, 11, 9, 17, 6, 0)
s = 155: (0, 54, 8, 9, 7, 4, 11, 9, 6, 31, 7, 0)
s = 156: (0, 32, 8, 18, 9, 5, 11, 13, 9, 32, 5, 0)
s = 157: (0, 47, 7, 10, 10, 6, 10, 10, 11, 24, 4, 0)
s = 158: (0, 36, 8, 13, 7, 5, 8, 15, 11, 22, 4, 0)
s = 159: (0, 32, 8, 11, 9, 5, 11, 8, 7, 28, 5, 0)
s = 160: (0, 68, 7, 19, 7, 6, 6, 10, 9, 19, 4, 0)
s = 161: (0, 27, 8, 12, 10, 5, 8, 11, 10, 19, 7, 0)
s = 162: (0, 52, 14, 13, 9, 5, 10, 8, 6, 30, 4, 0)
s = 163: (0, 37, 9, 10, 10, 7, 7, 7, 8, 15, 4, 0)
s = 164: (0, 50, 5, 16, 6, 6, 9, 9, 8, 21, 4, 0)
s = 165: (0, 34, 6, 12, 12, 7, 12, 12, 7, 15, 4, 0)
s = 166: (0, 39, 15, 17, 9, 5, 6, 6, 7, 20, 4, 0)
s = 167: (0, 45, 9, 15, 9, 5, 8, 10, 12, 18, 7, 0)
s = 168: (0, 69, 7, 15, 11, 5, 11, 6, 9, 19, 5, 0)
s = 169: (0, 39, 7, 15, 7, 9, 12, 12, 9, 32, 6, 0)
s = 170: (0, 60, 10, 9, 9, 8, 12, 13, 7, 30, 5, 0)
s = 171: (0, 53, 6, 12, 6, 5, 10, 7, 6, 18, 7, 0)
s = 172: (0, 57, 7, 11, 11, 8, 10, 10, 7, 30, 4, 0)
s = 173: (0, 45, 11, 12, 8, 7, 8, 8, 5, 36, 6, 0)
s = 174: (0, 37, 13, 17, 6, 6, 9, 11, 9, 31, 5, 0)
s = 175: (0, 53, 5, 15, 9, 6, 10, 11, 8, 19, 5, 0)
s = 176: (0, 50, 9, 15, 10, 7, 13, 13, 10, 21, 6, 0)
s = 177: (0, 25, 9, 10, 7, 7, 11, 10, 9, 17, 4, 0)
s = 178: (0, 47, 5, 22, 7, 4, 7, 7, 7, 25, 4, 0)
s = 179: (0, 54, 10, 15, 9, 5, 7, 10, 9, 17, 7, 0)
s = 180: (0, 32, 7, 11, 6, 8, 10, 7, 7, 26, 5, 0)
s = 181: (0, 34, 8, 9, 9, 5, 9, 9, 10, 15, 3, 0)
s = 182: (0, 34, 13, 17, 9, 7, 10, 7, 10, 17, 6, 0)
s = 183: (0, 32, 6, 10, 8, 6, 13, 8, 7, 29, 7, 0)
s = 184: (0, 46, 8, 14, 11, 6, 7, 6, 6, 19, 3, 0)
s = 185: (0, 30, 9, 18, 8, 4, 13, 7, 6, 15, 5, 0)
s = 186: (0, 28, 10, 15, 8, 7, 6, 9, 8, 18, 5, 0)
s = 187: (0, 52, 8, 12, 8, 6, 9, 6, 11, 32, 5, 0)
s = 188: (0, 45, 8, 11, 10, 7, 12, 8, 12, 41, 4, 0)
s = 189: (0, 36, 10, 19, 10, 9, 16, 15, 5, 24, 5, 0)
s = 190: (0, 27, 10, 15, 9, 9, 13, 7, 6, 21, 3, 0)
s = 191: (0, 36, 6, 16, 10, 9, 7, 11, 9, 27, 5, 0)
s = 192: (0, 39, 11, 12, 6, 5, 12, 9, 7, 27, 6, 0)
s = 193: (0, 54, 9, 15, 10, 9, 9, 9, 11, 21, 7, 0)
s = 194: (0, 30, 10, 15, 7, 7, 8, 11, 6, 19, 6, 0)
s = 195: (0, 34, 11, 8, 6, 7, 12, 10, 11, 22, 3, 0)
s = 196: (0, 35, 7, 12, 7, 7, 10, 9, 11, 17, 5, 0)
s = 197: (0, 59, 6, 7, 7, 6, 14, 9, 6, 24, 6, 0)
s = 198: (0, 39, 6, 13, 10, 6, 13, 13, 13, 22, 6, 0)
s = 199: (0, 62, 6, 13, 10, 5, 13, 7, 13, 27, 4, 0)
s = 200: (0, 54, 8, 10, 8, 4, 12, 13, 8, 31, 4, 0)
------------------------------------------------------------------------
RESOURCE k = 3
s = 1: (0, 68, 2, 20, 8, 34, 5, 5, 14, 26, 5, 0)
s = 2: (0, 45, 2, 16, 9, 32, 7, 9, 28, 31, 4, 0)
s = 3: (0, 41, 3, 21, 10, 28, 7, 9, 19, 28, 6, 0)
s = 4: (0, 48, 3, 20, 9, 34, 5, 5, 10, 19, 4, 0)
s = 5: (0, 36, 2, 18, 6, 41, 5, 8, 23, 28, 4, 0)
s = 6: (0, 34, 3, 21, 10, 35, 5, 8, 18, 24, 5, 0)
s = 7: (0, 57, 4, 25, 7, 29, 4, 9, 16, 27, 8, 0)
s = 8: (0, 48, 2, 14, 7, 40, 6, 13, 15, 48, 4, 0)
s = 9: (0, 44, 2, 22, 9, 27, 4, 7, 11, 25, 7, 0)
s = 10: (0, 60, 3, 17, 12, 37, 7, 6, 23, 19, 5, 0)
s = 11: (0, 53, 3, 16, 12, 51, 4, 6, 13, 29, 6, 0)
s = 12: (0, 55, 2, 21, 8, 25, 5, 7, 17, 19, 6, 0)
s = 13: (0, 34, 2, 20, 8, 19, 5, 12, 13, 23, 6, 0)
s = 14: (0, 30, 2, 21, 7, 20, 6, 9, 20, 43, 5, 0)
s = 15: (0, 31, 3, 18, 6, 24, 3, 6, 14, 19, 4, 0)
s = 16: (0, 68, 2, 11, 5, 22, 6, 10, 26, 20, 6, 0)
s = 17: (0, 49, 2, 17, 10, 20, 6, 6, 15, 29, 6, 0)
s = 18: (0, 50, 2, 11, 7, 21, 7, 6, 18, 37, 5, 0)
s = 19: (0, 37, 3, 10, 11, 33, 4, 5, 22, 33, 5, 0)
s = 20: (0, 28, 2, 27, 11, 33, 7, 7, 17, 23, 6, 0)
s = 21: (0, 39, 3, 28, 11, 22, 5, 7, 20, 24, 5, 0)
s = 22: (0, 50, 2, 11, 13, 42, 3, 10, 18, 25, 4, 0)
s = 23: (0, 31, 3, 16, 10, 23, 7, 7, 20, 50, 6, 0)
s = 24: (0, 58, 3, 15, 7, 23, 7, 14, 15, 20, 8, 0)
s = 25: (0, 29, 2, 18, 5, 32, 3, 12, 24, 16, 6, 0)
s = 26: (0, 36, 3, 23, 10, 61, 4, 8, 17, 31, 6, 0)
s = 27: (0, 56, 2, 21, 9, 23, 4, 6, 32, 28, 5, 0)
s = 28: (0, 69, 2, 14, 9, 25, 5, 7, 17, 22, 3, 0)
s = 29: (0, 38, 3, 16, 7, 47, 3, 9, 32, 39, 5, 0)
s = 30: (0, 42, 3, 11, 7, 46, 8, 8, 16, 24, 6, 0)
s = 31: (0, 43, 3, 18, 8, 27, 5, 6, 15, 19, 7, 0)
s = 32: (0, 42, 2, 18, 5, 29, 7, 10, 22, 25, 6, 0)
s = 33: (0, 27, 3, 10, 7, 24, 5, 8, 23, 43, 4, 0)
s = 34: (0, 44, 4, 19, 13, 30, 6, 10, 15, 34, 5, 0)
s = 35: (0, 59, 2, 26, 6, 24, 8, 7, 18, 43, 5, 0)
s = 36: (0, 53, 2, 21, 11, 29, 7, 11, 22, 21, 6, 0)
s = 37: (0, 42, 3, 17, 9, 25, 7, 8, 19, 28, 5, 0)
s = 38: (0, 49, 3, 13, 9, 39, 6, 6, 10, 28, 6, 0)
s = 39: (0, 57, 2, 17, 8, 17, 4, 6, 14, 26, 5, 0)
s = 40: (0, 33, 2, 25, 6, 30, 5, 9, 21, 28, 10, 0)
s = 41: (0, 57, 2, 16, 6, 31, 6, 6, 15, 45, 6, 0)
s = 42: (0, 64, 2, 20, 10, 39, 4, 4, 28, 34, 7, 0)
s = 43: (0, 47, 3, 14, 12, 18, 6, 7, 16, 21, 8, 0)
s = 44: (0, 64, 2, 22, 12, 38, 3, 10, 26, 29, 5, 0)
s = 45: (0, 45, 3, 12, 5, 36, 6, 7, 12, 23, 4, 0)
s = 46: (0, 57, 3, 28, 15, 28, 4, 9, 17, 37, 7, 0)
s = 47: (0, 60, 3, 27, 11, 34, 5, 6, 13, 23, 4, 0)
s = 48: (0, 50, 3, 25, 8, 17, 6, 6, 22, 49, 8, 0)
s = 49: (0, 50, 3, 12, 6, 34, 4, 5, 21, 25, 5, 0)
s = 50: (0, 46, 2, 12, 8, 21, 6, 4, 26, 37, 5, 0)
s = 51: (0, 72, 2, 18, 6, 29, 4, 5, 27, 40, 7, 0)
s = 52: (0, 45, 3, 19, 5, 28, 4, 7, 36, 33, 5, 0)
s = 53: (0, 64, 2, 16, 7, 31, 5, 10, 17, 20, 6, 0)
s = 54: (0, 33, 2, 16, 7, 35, 4, 7, 14, 45, 6, 0)
s = 55: (0, 54, 4, 14, 8, 24, 4, 6, 11, 28, 7, 0)
s = 56: (0, 52, 2, 23, 7, 36, 8, 11, 21, 18, 4, 0)
s = 57: (0, 53, 2, 12, 6, 32, 5, 9, 31, 28, 4, 0)
s = 58: (0, 53, 3, 12, 5, 25, 7, 8, 17, 46, 5, 0)
s = 59: (0, 57, 3, 16, 10, 24, 4, 8, 12, 38, 5, 0)
s = 60: (0, 51, 2, 23, 9, 21, 6, 8, 22, 24, 6, 0)
s = 61: (0, 55, 4, 16, 5, 24, 6, 9, 14, 31, 5, 0)
s = 62: (0, 33, 3, 30, 7, 53, 5, 7, 27, 17, 4, 0)
s = 63: (0, 43, 2, 24, 8, 32, 6, 10, 17, 28, 5, 0)
s = 64: (0, 55, 3, 16, 8, 35, 5, 13, 17, 25, 6, 0)
s = 65: (0, 67, 2, 15, 5, 26, 6, 9, 24, 39, 4, 0)
s = 66: (0, 54, 3, 18, 10, 20, 5, 12, 17, 16, 4, 0)
s = 67: (0, 60, 3, 16, 6, 25, 4, 7, 16, 37, 4, 0)
s = 68: (0, 34, 3, 21, 14, 22, 5, 9, 18, 37, 4, 0)
s = 69: (0, 39, 2, 12, 7, 34, 4, 10, 20, 50, 7, 0)
s = 70: (0, 62, 3, 12, 8, 28, 7, 9, 20, 31, 4, 0)
s = 71: (0, 55, 4, 21, 9, 33, 4, 5, 19, 32, 4, 0)
s = 72: (0, 34, 2, 15, 6, 34, 4, 5, 14, 19, 6, 0)
s = 73: (0, 49, 2, 19, 9, 16, 6, 8, 18, 29, 4, 0)
s = 74: (0, 42, 2, 11, 5, 32, 6, 7, 24, 26, 9, 0)
s = 75: (0, 48, 4, 13, 8, 33, 4, 6, 18, 22, 4, 0)
s = 76: (0, 36, 2, 28, 11, 24, 6, 7, 14, 18, 6, 0)
s = 77: (0, 43, 3, 15, 6, 42, 6, 6, 12, 21, 5, 0)
s = 78: (0, 28, 2, 15, 9, 21, 5, 10, 28, 38, 4, 0)
s = 79: (0, 35, 4, 23, 7, 39, 7, 8, 20, 22, 7, 0)
s = 80: (0, 40, 3, 22, 10, 37, 8, 5, 26, 30, 6, 0)
s = 81: (0, 40, 2, 17, 10, 30, 6, 6, 17, 30, 5, 0)
s = 82: (0, 58, 2, 13, 10, 25, 7, 6, 29, 19, 6, 0)
s = 83: (0, 47, 2, 20, 7, 37, 5, 6, 14, 26, 6, 0)
s = 84: (0, 39, 2, 16, 6, 36, 8, 6, 18, 38, 6, 0)
s = 85: (0, 41, 3, 24, 15, 29, 4, 8, 22, 41, 5, 0)
s = 86: (0, 66, 3, 25, 10, 46, 5, 11, 17, 35, 5, 0)
s = 87: (0, 58, 2, 20, 10, 23, 4, 13, 17, 26, 8, 0)
s = 88: (0, 45, 3, 18, 8, 19, 4, 7, 22, 19, 4, 0)
s = 89: (0, 38, 2, 12, 10, 25, 7, 6, 11, 27, 4, 0)
s = 90: (0, 32, 2, 14, 7, 41, 7, 9, 25, 39, 6, 0)
s = 91: (0, 47, 3, 11, 5, 25, 5, 9, 28, 40, 6, 0)
s = 92: (0, 38, 2, 32, 14, 25, 6, 11, 33, 29, 7, 0)
s = 93: (0, 34, 2, 14, 6, 30, 8, 6, 15, 20, 4, 0)
s = 94: (0, 57, 2, 18, 6, 25, 4, 6, 19, 25, 5, 0)
s = 95: (0, 67, 2, 19, 5, 37, 7, 7, 14, 24, 5, 0)
s = 96: (0, 51, 2, 24, 10, 24, 5, 13, 21, 40, 6, 0)
s = 97: (0, 70, 4, 26, 6, 17, 4, 9, 17, 28, 6, 0)
s = 98: (0, 41, 3, 24, 11, 26, 7, 5, 12, 19, 4, 0)
s = 99: (0, 47, 3, 27, 9, 41, 6, 4, 24, 17, 4, 0)
s = 100: (0, 35, 2, 18, 8, 58, 4, 5, 24, 28, 3, 0)
s = 101: (0, 58, 3, 18, 12, 24, 5, 4, 16, 29, 5, 0)
s = 102: (0, 42, 3, 16, 8, 37, 4, 8, 31, 47, 7, 0)
s = 103: (0, 61, 3, 28, 6, 39, 4, 5, 20, 30, 6, 0)
s = 104: (0, 27, 3, 17, 12, 39, 7, 6, 21, 22, 8, 0)
s = 105: (0, 37, 2, 13, 7, 48, 8, 6, 15, 45, 6, 0)
s = 106: (0, 58, 3, 31, 9, 27, 7, 8, 21, 46, 7, 0)
s = 107: (0, 74, 2, 15, 12, 46, 5, 6, 22, 38, 4, 0)
s = 108: (0, 33, 2, 19, 5, 31, 4, 8, 19, 42, 4, 0)
s = 109: (0, 49, 3, 18, 8, 23, 5, 8, 15, 32, 7, 0)
s = 110: (0, 67, 3, 21, 8, 47, 5, 6, 19, 19, 5, 0)
s = 111: (0, 29, 3, 20, 8, 26, 4, 5, 18, 37, 5, 0)
s = 112: (0, 67, 3, 20, 14, 37, 5, 10, 15, 29, 5, 0)
s = 113: (0, 60, 2, 18, 9, 30, 4, 8, 22, 23, 4, 0)
s = 114: (0, 63, 2, 13, 10, 32, 4, 11, 13, 41, 7, 0)
s = 115: (0, 80, 2, 24, 10, 25, 4, 6, 31, 24, 5, 0)
s = 116: (0, 60, 3, 16, 10, 33, 6, 5, 21, 44, 5, 0)
s = 117: (0, 34, 3, 17, 9, 27, 4, 12, 17, 43, 4, 0)
s = 118: (0, 28, 2, 11, 7, 22, 4, 8, 14, 35, 3, 0)
s = 119: (0, 31, 3, 11, 8, 24, 7, 9, 15, 38, 5, 0)
s = 120: (0, 61, 3, 15, 10, 35, 6, 12, 12, 17, 6, 0)
s = 121: (0, 49, 2, 17, 7, 56, 6, 8, 10, 46, 8, 0)
s = 122: (0, 58, 2, 23, 6, 49, 4, 5, 14, 19, 6, 0)
s = 123: (0, 54, 3, 14, 10, 30, 7, 5, 21, 33, 5, 0)
s = 124: (0, 43, 3, 18, 7, 34, 5, 11, 22, 18, 5, 0)
s = 125: (0, 48, 2, 15, 11, 44, 7, 7, 23, 22, 5, 0)
s = 126: (0, 56, 3, 13, 8, 24, 4, 6, 21, 45, 6, 0)
s = 127: (0, 55, 3, 12, 8, 26, 5, 6, 14, 26, 7, 0)
s = 128: (0, 44, 2, 12, 12, 21, 6, 8, 15, 38, 6, 0)
s = 129: (0, 44, 2, 23, 11, 17, 4, 9, 11, 22, 9, 0)
s = 130: (0, 39, 2, 14, 10, 38, 5, 6, 18, 41, 7, 0)
s = 131: (0, 28, 3, 16, 9, 18, 5, 5, 23, 20, 5, 0)
s = 132: (0, 47, 2, 20, 7, 26, 7, 8, 22, 32, 4, 0)
s = 133: (0, 53, 3, 12, 9, 36, 5, 10, 21, 28, 7, 0)
s = 134: (0, 49, 2, 17, 9, 36, 6, 9, 20, 21, 5, 0)
s = 135: (0, 60, 2, 15, 8, 30, 7, 11, 14, 39, 5, 0)
s = 136: (0, 54, 3, 12, 8, 19, 8, 8, 15, 34, 4, 0)
s = 137: (0, 54, 2, 24, 10, 24, 7, 11, 27, 33, 6, 0)
s = 138: (0, 63, 3, 32, 7, 25, 7, 8, 16, 21, 5, 0)
s = 139: (0, 45, 2, 21, 10, 38, 4, 10, 14, 33, 6, 0)
s = 140: (0, 51, 3, 20, 7, 34, 7, 7, 21, 29, 3, 0)
s = 141: (0, 48, 2, 18, 9, 32, 5, 7, 12, 30, 7, 0)
s = 142: (0, 77, 2, 16, 7, 51, 4, 5, 22, 43, 4, 0)
s = 143: (0, 72, 2, 25, 6, 34, 4, 4, 15, 18, 5, 0)
s = 144: (0, 32, 2, 23, 10, 41, 5, 6, 10, 22, 5, 0)
s = 145: (0, 67, 3, 15, 6, 31, 8, 9, 21, 18, 8, 0)
s = 146: (0, 29, 2, 16, 9, 20, 8, 11, 15, 27, 5, 0)
s = 147: (0, 63, 4, 18, 12, 37, 5, 5, 20, 27, 8, 0)
s = 148: (0, 30, 3, 24, 7, 26, 6, 9, 16, 34, 6, 0)
s = 149: (0, 41, 3, 24, 6, 26, 6, 9, 27, 24, 9, 0)
s = 150: (0, 57, 2, 19, 9, 33, 7, 5, 20, 29, 5, 0)
s = 151: (0, 29, 2, 16, 10, 38, 6, 6, 12, 33, 6, 0)
s = 152: (0, 52, 3, 19, 9, 42, 5, 10, 21, 50, 5, 0)
s = 153: (0, 46, 2, 16, 10, 54, 5, 9, 14, 28, 7, 0)
s = 154: (0, 51, 3, 18, 9, 38, 5, 9, 20, 21, 6, 0)
s = 155: (0, 61, 2, 14, 7, 19, 6, 7, 12, 38, 7, 0)
s = 156: (0, 36, 2, 27, 9, 21, 7, 10, 19, 40, 5, 0)
s = 157: (0, 54, 2, 15, 10, 28, 6, 8, 25, 30, 4, 0)
s = 158: (0, 41, 2, 19, 7, 22, 5, 11, 25, 28, 4, 0)
s = 159: (0, 36, 2, 16, 9, 22, 6, 7, 16, 35, 5, 0)
s = 160: (0, 78, 2, 28, 7, 27, 4, 8, 19, 24, 4, 0)
s = 161: (0, 30, 2, 17, 10, 23, 5, 9, 22, 24, 7, 0)
s = 162: (0, 59, 4, 20, 9, 23, 6, 6, 13, 37, 4, 0)
s = 163: (0, 43, 3, 15, 10, 33, 4, 6, 17, 18, 4, 0)
s = 164: (0, 57, 2, 24, 6, 27, 5, 7, 17, 27, 4, 0)
s = 165: (0, 38, 2, 18, 12, 32, 7, 9, 14, 18, 4, 0)
s = 166: (0, 44, 4, 26, 9, 24, 4, 5, 15, 25, 4, 0)
s = 167: (0, 51, 3, 22, 9, 24, 5, 8, 27, 22, 7, 0)
s = 168: (0, 79, 2, 23, 11, 22, 6, 5, 19, 24, 5, 0)
s = 169: (0, 45, 2, 22, 7, 41, 7, 9, 19, 40, 6, 0)
s = 170: (0, 69, 3, 13, 9, 39, 7, 10, 14, 38, 5, 0)
s = 171: (0, 61, 2, 18, 6, 23, 6, 6, 13, 23, 7, 0)
s = 172: (0, 65, 2, 16, 11, 38, 6, 8, 15, 37, 4, 0)
s = 173: (0, 52, 3, 18, 8, 34, 5, 6, 12, 45, 6, 0)
s = 174: (0, 42, 4, 25, 6, 30, 5, 8, 19, 39, 5, 0)
s = 175: (0, 61, 2, 22, 9, 26, 6, 9, 18, 24, 5, 0)
s = 176: (0, 57, 3, 22, 10, 33, 8, 10, 22, 26, 6, 0)
s = 177: (0, 28, 3, 15, 7, 33, 6, 8, 21, 22, 4, 0)
s = 178: (0, 53, 2, 33, 7, 19, 4, 6, 16, 31, 4, 0)
s = 179: (0, 61, 3, 23, 9, 25, 4, 8, 19, 21, 7, 0)
s = 180: (0, 36, 2, 16, 6, 40, 6, 6, 14, 32, 5, 0)
s = 181: (0, 38, 2, 13, 9, 25, 5, 7, 22, 18, 3, 0)
s = 182: (0, 39, 4, 25, 9, 35, 6, 5, 22, 21, 6, 0)
s = 183: (0, 37, 2, 15, 8, 29, 7, 6, 15, 36, 7, 0)
s = 184: (0, 52, 2, 21, 11, 29, 4, 5, 13, 23, 3, 0)
s = 185: (0, 35, 3, 27, 8, 20, 7, 6, 14, 19, 5, 0)
s = 186: (0, 32, 3, 22, 8, 35, 4, 7, 17, 22, 5, 0)
s = 187: (0, 59, 2, 17, 8, 30, 5, 5, 23, 40, 5, 0)
s = 188: (0, 52, 2, 16, 10, 32, 7, 6, 26, 51, 4, 0)
s = 189: (0, 41, 3, 28, 10, 41, 9, 12, 12, 30, 5, 0)
s = 190: (0, 30, 3, 23, 9, 41, 7, 6, 14, 26, 3, 0)
s = 191: (0, 41, 2, 24, 10, 41, 4, 9, 19, 34, 5, 0)
s = 192: (0, 45, 3, 18, 6, 22, 7, 7, 15, 34, 6, 0)
s = 193: (0, 62, 3, 23, 10, 44, 5, 7, 23, 26, 7, 0)
s = 194: (0, 34, 3, 22, 7, 34, 5, 9, 12, 24, 6, 0)
s = 195: (0, 38, 3, 12, 6, 34, 7, 8, 25, 28, 3, 0)
s = 196: (0, 40, 2, 18, 7, 33, 6, 7, 24, 22, 5, 0)
s = 197: (0, 67, 2, 11, 7, 27, 8, 7, 14, 30, 6, 0)
s = 198: (0, 45, 2, 19, 10, 30, 7, 10, 28, 28, 6, 0)
s = 199: (0, 71, 2, 20, 10, 22, 7, 6, 29, 34, 4, 0)
s = 200: (0, 62, 2, 15, 8, 20, 7, 10, 17, 38, 4, 0)
************************************************************************
ES/LS-VALUES:
jobnr.   ES(i)    LS(i)
------------------------------------------------------------------------
  0        0        0
  1        0       58
  2        0       59
  3        0       62
  4        3       66
  5        2       61
  6        8       68
  7        2       68
  8        9       70
  9       10       68
 10        8       72
 11       15       74
************************************************************************
BIG-M-VALUES:
M1 = 58, M2 = 309
************************************************************************
